maximize
OBJ:100x0 + 100x1 + 100x2 + 100x3 + 100x4 + 100x5 + 100x6 + 100x7 + 100x8 + 100x9 + 100x10 + 100x11 + 100x12 + 100x13 + 100x14 + 100x15 + 100x16 + 100x17 + 100x18 + 100x19 + 100x20 + 100x21 + 100x22 + 100x23 + 100x24 + 100x25 + 100x26 + 100x27 + 100x28 + 100x29 + 100x30 + 100x31 + 100x32 + 100x33 + 100x34 + 100x35 + 100x36 + 100x37 + 100x38 + 100x39 + 100x40 + 100x41 + 100x42 + 100x43 + 100x44 + 100x45 + 100x46 + 100x47 + 100x48 + 100x49 + 100x50 + 100x51 + 100x52 + 100x53 + 100x54 + 100x55 + 100x56 + 100x57 + 100x58 + 100x59 + 100x60 + 100x61 + 100x62 + 100x63 + 100x64 + 100x65 + 100x66 + 100x67 - y15_21 - y55_57 - y15_30 - y26_30 - y7_26 - y5_65 - y8_9 - y0_5 - y29_41 - y8_18 - y21_37 - y0_14 - y48_63 - y29_59 - y21_64 - y33_47 - y2_41 - y3_6 - y33_56 - y2_50 - y3_15 - y51_64 - y22_37 - y14_33 - y24_65 - y3_42 - y15_25 - y7_30 - y18_30 - y36_66 - y47_66 - y9_58 - y29_36 - y48_49 - y29_54 - y21_59 - y10_22 - y10_31 - y54_65 - y25_38 - y44_51 - y2_45 - y10_58 - y14_19 - y32_55 - y43_55 - y3_28 - y43_64 - y35_60 - y55_56 - y17_39 - y36_52 - y28_48 - y9_44 - y5_55 - y9_53 - y17_66 - y28_66 - y21_27 - y6_47 - y29_49 - y40_49 - y40_58 - y6_65 - y20_67 - y31_67 - y32_41 - y32_50 - y51_63 - y13_46 - y24_46 - y3_23 - y35_46 - y1_53 - y13_55 - y16_51 - y1_62 - y16_60 - y9_30 - y5_41 - y28_43 - y47_56 - y5_50 - y28_52 - y36_65 - y9_48 - y47_65 - y28_61 - y58_62 - y9_57 - y21_22 - y6_33 - y9_66 - y61_67 - y29_44 - y21_40 - y10_12 - y39_48 - y39_66 - y54_64 - y12_58 - y23_58 - y2_35 - y32_36 - y3_9 - y43_45 - y51_58 - y13_41 - y3_18 - y14_18 - y43_54 - y24_50 - y32_63 - y16_46 - y43_63 - y16_55 - y17_20 - y16_64 - y28_29 - y36_42 - y28_38 - y36_51 - y9_34 - y5_54 - y9_52 - y50_53 - y21_26 - y27_60 - y6_37 - y6_46 - y8_65 - y19_65 - y39_43 - y20_39 - y39_61 - y12_44 - y2_21 - y12_53 - y31_66 - y23_62 - y24_27 - y24_36 - y4_67 - y24_63 - y17_24 - y5_31 - y9_29 - y38_65 - y5_40 - y28_42 - y6_14 - y6_23 - y58_61 - y50_57 - y6_32 - y21_30 - y19_60 - y42_62 - y39_47 - y20_43 - y31_52 - y20_61 - y31_61 - y23_66 - y13_31 - y32_44 - y16_27 - y1_38 - y43_53 - y16_36 - y35_58 - y5_26 - y17_28 - y46_64 - y38_60 - y49_60 - y26_67 - y5_44 - y7_63 - y6_9 - y6_18 - y8_46 - y0_51 - y11_51 - y30_64 - y12_25 - y2_11 - y31_47 - y12_43 - y23_43 - y12_52 - y13_17 - y31_65 - y1_33 - y24_35 - y35_44 - y1_51 - y5_12 - y5_21 - y9_19 - y5_30 - y18_58 - y18_67 - y8_32 - y19_32 - y8_41 - y30_41 - y27_54 - y0_37 - y50_56 - y42_52 - y27_63 - y0_46 - y8_59 - y42_61 - y11_55 - y12_20 - y0_64 - y23_29 - y31_51 - y4_34 - y23_56 - y1_19 - y4_52 - y13_30 - y64_66 - y16_26 - y16_35 - y3_65 - y14_65 - y37_67 - y65_67 - y46_63 - y26_57 - y49_59 - y7_53 - y18_53 - y15_66 - y7_62 - y18_62 - y27_40 - y8_36 - y50_51 - y0_32 - y8_45 - y19_54 - y42_56 - y11_50 - y19_63 - y11_59 - y20_37 - y4_20 - y12_33 - y23_42 - y1_5 - y34_39 - y4_47 - y34_48 - y45_48 - y24_25 - y37_44 - y56_57 - y34_66 - y3_60 - y26_34 - y15_43 - y7_39 - y18_39 - y26_52 - y49_54 - y7_48 - y15_61 - y19_22 - y8_31 - y11_27 - y19_40 - y27_53 - y11_36 - y8_49 - y0_54 - y41_55 - y4_15 - y12_28 - y41_64 - y52_64 - y12_37 - y25_65 - y34_43 - y37_39 - y45_52 - y64_65 - y14_46 - y34_61 - y45_61 - y37_57 - y15_20 - y26_38 - y7_34 - y38_49 - y7_43 - y15_56 - y26_56 - y0_13 - y18_61 - y0_22 - y11_22 - y30_35 - y29_67 - y40_67 - y30_44 - y21_63 - y0_40 - y12_14 - y4_10 - y12_23 - y52_59 - y4_19 - y33_55 - y44_55 - y33_64 - y44_64 - y2_58 - y25_60 - y14_41 - y37_43 - y14_59 - y15_24 - y15_42 - y7_56 - y8_30 - y11_26 - y11_35 - y4_5 - y25_37 - y4_14 - y10_48 - y41_63 - y2_44 - y25_46 - y44_50 - y22_31 - y2_62 - y25_64 - y22_40 - y3_36 - y22_58 - y37_56 - y15_28 - y55_64 - y7_24 - y18_24 - y36_60 - y18_33 - y28_65 - y7_42 - y0_3 - y48_52 - y6_55 - y11_21 - y29_57 - y11_30 - y21_62 - y25_32 - y10_43 - y33_45 - y2_39 - y25_41 - y33_54 - y44_54 - y2_48 - y3_13 - y10_61 - y25_50 - y25_59 - y3_22 - y14_22 - y2_66 - y3_31 - y14_40 - y14_49 - y7_10 - y36_46 - y55_59 - y47_55 - y17_51 - y7_37 - y29_34 - y0_7 - y0_16 - y29_52 - y48_65 - y21_48 - y6_59 - y29_61 - y40_61 - y21_66 - y41_44 - y25_27 - y51_57 - y25_54 - y24_67 - y35_67 - y16_63 - y15_18 - y7_23 - y9_42 - y18_23 - y59_61 - y5_62 - y17_64 - y28_64 - y9_60 - y21_25 - y0_2 - y29_38 - y48_51 - y33_35 - y2_29 - y2_38 - y51_52 - y2_47 - y32_48 - y43_48 - y22_25 - y3_21 - y14_21 - y24_53 - y14_30 - y43_66 - y1_60 - y16_58 - y28_41 - y47_54 - y9_37 - y28_50 - y28_59 - y6_22 - y5_66 - y6_49 - y40_51 - y21_47 - y10_19 - y39_55 - y10_28 - y62_66 - y54_62 - y2_33 - y2_42 - y3_7 - y32_43 - y13_39 - y14_16 - y43_52 - y13_48 - y24_48 - y16_44 - y24_57 - y16_53 - y24_66 - y17_36 - y28_36 - y47_49 - y47_58 - y9_50 - y28_63 - y27_67 - y6_44 - y42_65 - y21_42 - y20_55 - y23_51 - y2_28 - y32_38 - y3_11 - y4_65 - y51_60 - y1_41 - y24_43 - y1_50 - y32_65 - y35_61 - y9_18 - y16_66 - y17_31 - y5_47 - y6_12 - y50_64 - y19_58 - y42_60 - y0_63 - y39_45 - y10_18 - y2_14 - y31_50 - y39_63 - y12_46 - y2_23 - y23_64 - y1_27 - y13_29 - y24_29 - y16_25 - y51_55 - y32_51 - y35_47 - y5_24 - y9_22 - y49_58 - y28_35 - y15_65 - y6_16 - y6_25 - y27_57 - y30_53 - y42_55 - y27_66 - y8_62 - y42_64 - y11_67 - y12_32 - y23_32 - y2_9 - y4_37 - y39_67 - y12_50 - y23_59 - y1_22 - y4_64 - y34_65 - y1_49 - y24_51 - y35_51 - y5_10 - y5_28 - y17_30 - y38_62 - y9_35 - y27_34 - y27_43 - y42_50 - y27_61 - y8_57 - y42_59 - y8_66 - y39_44 - y23_27 - y23_36 - y31_49 - y1_8 - y4_41 - y12_54 - y13_19 - y23_54 - y4_50 - y24_28 - y16_24 - y1_44 - y16_42 - y38_39 - y26_55 - y49_57 - y7_51 - y18_51 - y27_29 - y19_43 - y11_57 - y20_35 - y4_18 - y11_66 - y1_3 - y4_36 - y12_49 - y23_49 - y4_54 - y37_51 - y14_58 - y14_67 - y5_18 - y26_50 - y57_65 - y7_46 - y7_55 - y18_64 - y19_29 - y27_42 - y11_25 - y30_47 - y42_49 - y19_56 - y11_52 - y23_35 - y10_65 - y44_67 - y34_41 - y1_25 - y34_59 - y3_53 - y37_55 - y3_62 - y15_27 - y15_36 - y5_13 - y7_32 - y38_47 - y7_41 - y18_41 - y15_54 - y26_54 - y18_50 - y8_15 - y0_11 - y19_24 - y48_60 - y27_37 - y0_20 - y11_20 - y8_33 - y30_33 - y27_46 - y29_65 - y40_65 - y8_42 - y19_42 - y30_42 - y41_48 - y12_21 - y4_17 - y44_53 - y12_30 - y44_62 - y1_2 - y1_11 - y2_65 - y25_67 - y1_20 - y53_58 - y22_52 - y14_48 - y22_61 - y7_18 - y14_66 - y7_27 - y15_40 - y26_40 - y18_45 - y8_10 - y0_6 - y8_19 - y27_32 - y8_28 - y0_24 - y8_37 - y0_42 - y41_43 - y41_52 - y10_46 - y2_51 - y10_64 - y44_66 - y1_6 - y2_60 - y25_62 - y3_34 - y22_47 - y34_49 - y3_43 - y37_45 - y3_52 - y37_54 - y22_65 - y55_62 - y59_60 - y26_35 - y18_31 - y17_63 - y8_14 - y0_10 - y8_23 - y19_23 - y48_59 - y0_19 - y6_53 - y30_32 - y6_62 - y29_64 - y63_66 - y21_60 - y33_34 - y10_41 - y10_50 - y41_65 - y33_61 - y22_24 - y3_29 - y3_38 - y37_40 - y22_51 - y14_47
 Subject to
C1: x0+x2-y0_2 <=1 
C2: x0+x3-y0_3 <=1 
C3: x0+x4 <=1 
C4: x0+x5-y0_5 <=1 
C5: x0+x6-y0_6 <=1 
C6: x0+x7-y0_7 <=1 
C7: x0+x8 <=1 
C8: x0+x9 <=1 
C9: x0+x10-y0_10 <=1 
C10: x0+x11-y0_11 <=1 
C11: x0+x13-y0_13 <=1 
C12: x0+x14-y0_14 <=1 
C13: x0+x15 <=1 
C14: x0+x16-y0_16 <=1 
C15: x0+x17 <=1 
C16: x0+x19-y0_19 <=1 
C17: x0+x20-y0_20 <=1 
C18: x0+x21 <=1 
C19: x0+x22-y0_22 <=1 
C20: x0+x24-y0_24 <=1 
C21: x0+x29 <=1 
C22: x0+x30 <=1 
C23: x0+x32-y0_32 <=1 
C24: x0+x36 <=1 
C25: x0+x37-y0_37 <=1 
C26: x0+x38 <=1 
C27: x0+x40-y0_40 <=1 
C28: x0+x42-y0_42 <=1 
C29: x0+x43 <=1 
C30: x0+x46-y0_46 <=1 
C31: x0+x48 <=1 
C32: x0+x49 <=1 
C33: x0+x50 <=1 
C34: x0+x51-y0_51 <=1 
C35: x0+x53 <=1 
C36: x0+x54-y0_54 <=1 
C37: x0+x60 <=1 
C38: x0+x61 <=1 
C39: x0+x63-y0_63 <=1 
C40: x0+x64-y0_64 <=1 
C41: x0+x65 <=1 
C42: x0+x66 <=1 
C43: x1+x2-y1_2 <=1 
C44: x1+x3-y1_3 <=1 
C45: x1+x4 <=1 
C46: x1+x5-y1_5 <=1 
C47: x1+x6-y1_6 <=1 
C48: x1+x8-y1_8 <=1 
C49: x1+x10 <=1 
C50: x1+x11-y1_11 <=1 
C51: x1+x12 <=1 
C52: x1+x13 <=1 
C53: x1+x17 <=1 
C54: x1+x19-y1_19 <=1 
C55: x1+x20-y1_20 <=1 
C56: x1+x21 <=1 
C57: x1+x22-y1_22 <=1 
C58: x1+x25-y1_25 <=1 
C59: x1+x27-y1_27 <=1 
C60: x1+x29 <=1 
C61: x1+x30 <=1 
C62: x1+x33-y1_33 <=1 
C63: x1+x36 <=1 
C64: x1+x37 <=1 
C65: x1+x38-y1_38 <=1 
C66: x1+x39 <=1 
C67: x1+x40 <=1 
C68: x1+x41-y1_41 <=1 
C69: x1+x43 <=1 
C70: x1+x44-y1_44 <=1 
C71: x1+x45 <=1 
C72: x1+x48 <=1 
C73: x1+x49-y1_49 <=1 
C74: x1+x50-y1_50 <=1 
C75: x1+x51-y1_51 <=1 
C76: x1+x53-y1_53 <=1 
C77: x1+x55 <=1 
C78: x1+x56 <=1 
C79: x1+x57 <=1 
C80: x1+x60-y1_60 <=1 
C81: x1+x62-y1_62 <=1 
C82: x1+x63 <=1 
C83: x1+x64 <=1 
C84: x1+x65 <=1 
C85: x2+x3 <=1 
C86: x2+x5 <=1 
C87: x2+x6 <=1 
C88: x2+x9-y2_9 <=1 
C89: x2+x11-y2_11 <=1 
C90: x2+x13 <=1 
C91: x2+x14-y2_14 <=1 
C92: x2+x15 <=1 
C93: x2+x18 <=1 
C94: x2+x21-y2_21 <=1 
C95: x2+x22 <=1 
C96: x2+x23-y2_23 <=1 
C97: x2+x24 <=1 
C98: x2+x25 <=1 
C99: x2+x28-y2_28 <=1 
C100: x2+x29-y2_29 <=1 
C101: x2+x31 <=1 
C102: x2+x32 <=1 
C103: x2+x33-y2_33 <=1 
C104: x2+x34 <=1 
C105: x2+x35-y2_35 <=1 
C106: x2+x36 <=1 
C107: x2+x37 <=1 
C108: x2+x38-y2_38 <=1 
C109: x2+x39-y2_39 <=1 
C110: x2+x41-y2_41 <=1 
C111: x2+x42-y2_42 <=1 
C112: x2+x43 <=1 
C113: x2+x44-y2_44 <=1 
C114: x2+x45-y2_45 <=1 
C115: x2+x47-y2_47 <=1 
C116: x2+x48-y2_48 <=1 
C117: x2+x49 <=1 
C118: x2+x50-y2_50 <=1 
C119: x2+x51-y2_51 <=1 
C120: x2+x52 <=1 
C121: x2+x54 <=1 
C122: x2+x55 <=1 
C123: x2+x56 <=1 
C124: x2+x58-y2_58 <=1 
C125: x2+x60-y2_60 <=1 
C126: x2+x62-y2_62 <=1 
C127: x2+x63 <=1 
C128: x2+x65-y2_65 <=1 
C129: x2+x66-y2_66 <=1 
C130: x2+x67 <=1 
C131: x3+x4 <=1 
C132: x3+x6-y3_6 <=1 
C133: x3+x7-y3_7 <=1 
C134: x3+x8 <=1 
C135: x3+x9-y3_9 <=1 
C136: x3+x11-y3_11 <=1 
C137: x3+x13-y3_13 <=1 
C138: x3+x14 <=1 
C139: x3+x15-y3_15 <=1 
C140: x3+x17 <=1 
C141: x3+x18-y3_18 <=1 
C142: x3+x19 <=1 
C143: x3+x20 <=1 
C144: x3+x21-y3_21 <=1 
C145: x3+x22-y3_22 <=1 
C146: x3+x23-y3_23 <=1 
C147: x3+x25 <=1 
C148: x3+x26 <=1 
C149: x3+x27 <=1 
C150: x3+x28-y3_28 <=1 
C151: x3+x29-y3_29 <=1 
C152: x3+x31-y3_31 <=1 
C153: x3+x34-y3_34 <=1 
C154: x3+x36-y3_36 <=1 
C155: x3+x37 <=1 
C156: x3+x38-y3_38 <=1 
C157: x3+x39 <=1 
C158: x3+x41 <=1 
C159: x3+x42-y3_42 <=1 
C160: x3+x43-y3_43 <=1 
C161: x3+x44 <=1 
C162: x3+x48 <=1 
C163: x3+x51 <=1 
C164: x3+x52-y3_52 <=1 
C165: x3+x53-y3_53 <=1 
C166: x3+x55 <=1 
C167: x3+x57 <=1 
C168: x3+x60-y3_60 <=1 
C169: x3+x62-y3_62 <=1 
C170: x3+x63 <=1 
C171: x3+x65-y3_65 <=1 
C172: x3+x67 <=1 
C173: x4+x5-y4_5 <=1 
C174: x4+x10-y4_10 <=1 
C175: x4+x11 <=1 
C176: x4+x13 <=1 
C177: x4+x14-y4_14 <=1 
C178: x4+x15-y4_15 <=1 
C179: x4+x17-y4_17 <=1 
C180: x4+x18-y4_18 <=1 
C181: x4+x19-y4_19 <=1 
C182: x4+x20-y4_20 <=1 
C183: x4+x22 <=1 
C184: x4+x23 <=1 
C185: x4+x26 <=1 
C186: x4+x32 <=1 
C187: x4+x34-y4_34 <=1 
C188: x4+x36-y4_36 <=1 
C189: x4+x37-y4_37 <=1 
C190: x4+x38 <=1 
C191: x4+x39 <=1 
C192: x4+x40 <=1 
C193: x4+x41-y4_41 <=1 
C194: x4+x43 <=1 
C195: x4+x44 <=1 
C196: x4+x47-y4_47 <=1 
C197: x4+x50-y4_50 <=1 
C198: x4+x51 <=1 
C199: x4+x52-y4_52 <=1 
C200: x4+x54-y4_54 <=1 
C201: x4+x57 <=1 
C202: x4+x59 <=1 
C203: x4+x61 <=1 
C204: x4+x63 <=1 
C205: x4+x64-y4_64 <=1 
C206: x4+x65-y4_65 <=1 
C207: x4+x67-y4_67 <=1 
C208: x5+x6 <=1 
C209: x5+x8 <=1 
C210: x5+x9 <=1 
C211: x5+x10-y5_10 <=1 
C212: x5+x12-y5_12 <=1 
C213: x5+x13-y5_13 <=1 
C214: x5+x18-y5_18 <=1 
C215: x5+x19 <=1 
C216: x5+x21-y5_21 <=1 
C217: x5+x22 <=1 
C218: x5+x24-y5_24 <=1 
C219: x5+x26-y5_26 <=1 
C220: x5+x28-y5_28 <=1 
C221: x5+x29 <=1 
C222: x5+x30-y5_30 <=1 
C223: x5+x31-y5_31 <=1 
C224: x5+x34 <=1 
C225: x5+x40-y5_40 <=1 
C226: x5+x41-y5_41 <=1 
C227: x5+x42 <=1 
C228: x5+x43 <=1 
C229: x5+x44-y5_44 <=1 
C230: x5+x45 <=1 
C231: x5+x46 <=1 
C232: x5+x47-y5_47 <=1 
C233: x5+x48 <=1 
C234: x5+x50-y5_50 <=1 
C235: x5+x54-y5_54 <=1 
C236: x5+x55-y5_55 <=1 
C237: x5+x56 <=1 
C238: x5+x62-y5_62 <=1 
C239: x5+x64 <=1 
C240: x5+x65-y5_65 <=1 
C241: x5+x66-y5_66 <=1 
C242: x6+x8 <=1 
C243: x6+x9-y6_9 <=1 
C244: x6+x12-y6_12 <=1 
C245: x6+x14-y6_14 <=1 
C246: x6+x15 <=1 
C247: x6+x16-y6_16 <=1 
C248: x6+x18-y6_18 <=1 
C249: x6+x19 <=1 
C250: x6+x20 <=1 
C251: x6+x22-y6_22 <=1 
C252: x6+x23-y6_23 <=1 
C253: x6+x24 <=1 
C254: x6+x25-y6_25 <=1 
C255: x6+x26 <=1 
C256: x6+x27 <=1 
C257: x6+x28 <=1 
C258: x6+x31 <=1 
C259: x6+x32-y6_32 <=1 
C260: x6+x33-y6_33 <=1 
C261: x6+x34 <=1 
C262: x6+x36 <=1 
C263: x6+x37-y6_37 <=1 
C264: x6+x38 <=1 
C265: x6+x39 <=1 
C266: x6+x41 <=1 
C267: x6+x43 <=1 
C268: x6+x44-y6_44 <=1 
C269: x6+x45 <=1 
C270: x6+x46-y6_46 <=1 
C271: x6+x47-y6_47 <=1 
C272: x6+x49-y6_49 <=1 
C273: x6+x50 <=1 
C274: x6+x53-y6_53 <=1 
C275: x6+x54 <=1 
C276: x6+x55-y6_55 <=1 
C277: x6+x59-y6_59 <=1 
C278: x6+x60 <=1 
C279: x6+x61 <=1 
C280: x6+x62-y6_62 <=1 
C281: x6+x64 <=1 
C282: x6+x65-y6_65 <=1 
C283: x6+x67 <=1 
C284: x7+x10-y7_10 <=1 
C285: x7+x11 <=1 
C286: x7+x13 <=1 
C287: x7+x14 <=1 
C288: x7+x16 <=1 
C289: x7+x18-y7_18 <=1 
C290: x7+x20 <=1 
C291: x7+x22 <=1 
C292: x7+x23-y7_23 <=1 
C293: x7+x24-y7_24 <=1 
C294: x7+x26-y7_26 <=1 
C295: x7+x27-y7_27 <=1 
C296: x7+x30-y7_30 <=1 
C297: x7+x31 <=1 
C298: x7+x32-y7_32 <=1 
C299: x7+x34-y7_34 <=1 
C300: x7+x37-y7_37 <=1 
C301: x7+x39-y7_39 <=1 
C302: x7+x41-y7_41 <=1 
C303: x7+x42-y7_42 <=1 
C304: x7+x43-y7_43 <=1 
C305: x7+x45 <=1 
C306: x7+x46-y7_46 <=1 
C307: x7+x48-y7_48 <=1 
C308: x7+x51-y7_51 <=1 
C309: x7+x52 <=1 
C310: x7+x53-y7_53 <=1 
C311: x7+x55-y7_55 <=1 
C312: x7+x56-y7_56 <=1 
C313: x7+x57 <=1 
C314: x7+x59 <=1 
C315: x7+x61 <=1 
C316: x7+x62-y7_62 <=1 
C317: x7+x63-y7_63 <=1 
C318: x7+x67 <=1 
C319: x8+x9-y8_9 <=1 
C320: x8+x10-y8_10 <=1 
C321: x8+x11 <=1 
C322: x8+x12 <=1 
C323: x8+x14-y8_14 <=1 
C324: x8+x15-y8_15 <=1 
C325: x8+x16 <=1 
C326: x8+x17 <=1 
C327: x8+x18-y8_18 <=1 
C328: x8+x19-y8_19 <=1 
C329: x8+x20 <=1 
C330: x8+x21 <=1 
C331: x8+x23-y8_23 <=1 
C332: x8+x24 <=1 
C333: x8+x26 <=1 
C334: x8+x28-y8_28 <=1 
C335: x8+x29 <=1 
C336: x8+x30-y8_30 <=1 
C337: x8+x31-y8_31 <=1 
C338: x8+x32-y8_32 <=1 
C339: x8+x33-y8_33 <=1 
C340: x8+x35 <=1 
C341: x8+x36-y8_36 <=1 
C342: x8+x37-y8_37 <=1 
C343: x8+x41-y8_41 <=1 
C344: x8+x42-y8_42 <=1 
C345: x8+x43 <=1 
C346: x8+x45-y8_45 <=1 
C347: x8+x46-y8_46 <=1 
C348: x8+x47 <=1 
C349: x8+x49-y8_49 <=1 
C350: x8+x50 <=1 
C351: x8+x53 <=1 
C352: x8+x54 <=1 
C353: x8+x55 <=1 
C354: x8+x56 <=1 
C355: x8+x57-y8_57 <=1 
C356: x8+x58 <=1 
C357: x8+x59-y8_59 <=1 
C358: x8+x61 <=1 
C359: x8+x62-y8_62 <=1 
C360: x8+x63 <=1 
C361: x8+x64 <=1 
C362: x8+x65-y8_65 <=1 
C363: x8+x66-y8_66 <=1 
C364: x9+x15 <=1 
C365: x9+x16 <=1 
C366: x9+x17 <=1 
C367: x9+x18-y9_18 <=1 
C368: x9+x19-y9_19 <=1 
C369: x9+x22-y9_22 <=1 
C370: x9+x23 <=1 
C371: x9+x24 <=1 
C372: x9+x29-y9_29 <=1 
C373: x9+x30-y9_30 <=1 
C374: x9+x31 <=1 
C375: x9+x32 <=1 
C376: x9+x33 <=1 
C377: x9+x34-y9_34 <=1 
C378: x9+x35-y9_35 <=1 
C379: x9+x37-y9_37 <=1 
C380: x9+x38 <=1 
C381: x9+x40 <=1 
C382: x9+x42-y9_42 <=1 
C383: x9+x44-y9_44 <=1 
C384: x9+x47 <=1 
C385: x9+x48-y9_48 <=1 
C386: x9+x50-y9_50 <=1 
C387: x9+x52-y9_52 <=1 
C388: x9+x53-y9_53 <=1 
C389: x9+x54 <=1 
C390: x9+x57-y9_57 <=1 
C391: x9+x58-y9_58 <=1 
C392: x9+x60-y9_60 <=1 
C393: x9+x63 <=1 
C394: x9+x64 <=1 
C395: x9+x66-y9_66 <=1 
C396: x10+x12-y10_12 <=1 
C397: x10+x13 <=1 
C398: x10+x14 <=1 
C399: x10+x17 <=1 
C400: x10+x18-y10_18 <=1 
C401: x10+x19-y10_19 <=1 
C402: x10+x20 <=1 
C403: x10+x22-y10_22 <=1 
C404: x10+x23 <=1 
C405: x10+x26 <=1 
C406: x10+x28-y10_28 <=1 
C407: x10+x29 <=1 
C408: x10+x30 <=1 
C409: x10+x31-y10_31 <=1 
C410: x10+x34 <=1 
C411: x10+x36 <=1 
C412: x10+x40 <=1 
C413: x10+x41-y10_41 <=1 
C414: x10+x43-y10_43 <=1 
C415: x10+x45 <=1 
C416: x10+x46-y10_46 <=1 
C417: x10+x48-y10_48 <=1 
C418: x10+x50-y10_50 <=1 
C419: x10+x55 <=1 
C420: x10+x56 <=1 
C421: x10+x58-y10_58 <=1 
C422: x10+x59 <=1 
C423: x10+x61-y10_61 <=1 
C424: x10+x64-y10_64 <=1 
C425: x10+x65-y10_65 <=1 
C426: x11+x12 <=1 
C427: x11+x14 <=1 
C428: x11+x15 <=1 
C429: x11+x16 <=1 
C430: x11+x18 <=1 
C431: x11+x20-y11_20 <=1 
C432: x11+x21-y11_21 <=1 
C433: x11+x22-y11_22 <=1 
C434: x11+x24 <=1 
C435: x11+x25-y11_25 <=1 
C436: x11+x26-y11_26 <=1 
C437: x11+x27-y11_27 <=1 
C438: x11+x29 <=1 
C439: x11+x30-y11_30 <=1 
C440: x11+x31 <=1 
C441: x11+x32 <=1 
C442: x11+x35-y11_35 <=1 
C443: x11+x36-y11_36 <=1 
C444: x11+x37 <=1 
C445: x11+x38 <=1 
C446: x11+x44 <=1 
C447: x11+x45 <=1 
C448: x11+x48 <=1 
C449: x11+x49 <=1 
C450: x11+x50-y11_50 <=1 
C451: x11+x51-y11_51 <=1 
C452: x11+x52-y11_52 <=1 
C453: x11+x54 <=1 
C454: x11+x55-y11_55 <=1 
C455: x11+x57-y11_57 <=1 
C456: x11+x59-y11_59 <=1 
C457: x11+x66-y11_66 <=1 
C458: x11+x67-y11_67 <=1 
C459: x12+x14-y12_14 <=1 
C460: x12+x15 <=1 
C461: x12+x16 <=1 
C462: x12+x19 <=1 
C463: x12+x20-y12_20 <=1 
C464: x12+x21-y12_21 <=1 
C465: x12+x23-y12_23 <=1 
C466: x12+x25-y12_25 <=1 
C467: x12+x26 <=1 
C468: x12+x28-y12_28 <=1 
C469: x12+x29 <=1 
C470: x12+x30-y12_30 <=1 
C471: x12+x32-y12_32 <=1 
C472: x12+x33-y12_33 <=1 
C473: x12+x34 <=1 
C474: x12+x36 <=1 
C475: x12+x37-y12_37 <=1 
C476: x12+x42 <=1 
C477: x12+x43-y12_43 <=1 
C478: x12+x44-y12_44 <=1 
C479: x12+x45 <=1 
C480: x12+x46-y12_46 <=1 
C481: x12+x47 <=1 
C482: x12+x49-y12_49 <=1 
C483: x12+x50-y12_50 <=1 
C484: x12+x51 <=1 
C485: x12+x52-y12_52 <=1 
C486: x12+x53-y12_53 <=1 
C487: x12+x54-y12_54 <=1 
C488: x12+x55 <=1 
C489: x12+x58-y12_58 <=1 
C490: x12+x59 <=1 
C491: x12+x60 <=1 
C492: x12+x64 <=1 
C493: x12+x65 <=1 
C494: x12+x67 <=1 
C495: x13+x14 <=1 
C496: x13+x16 <=1 
C497: x13+x17-y13_17 <=1 
C498: x13+x19-y13_19 <=1 
C499: x13+x20 <=1 
C500: x13+x21 <=1 
C501: x13+x23 <=1 
C502: x13+x26 <=1 
C503: x13+x29-y13_29 <=1 
C504: x13+x30-y13_30 <=1 
C505: x13+x31-y13_31 <=1 
C506: x13+x32 <=1 
C507: x13+x34 <=1 
C508: x13+x36 <=1 
C509: x13+x37 <=1 
C510: x13+x39-y13_39 <=1 
C511: x13+x40 <=1 
C512: x13+x41-y13_41 <=1 
C513: x13+x45 <=1 
C514: x13+x46-y13_46 <=1 
C515: x13+x47 <=1 
C516: x13+x48-y13_48 <=1 
C517: x13+x50 <=1 
C518: x13+x51 <=1 
C519: x13+x55-y13_55 <=1 
C520: x13+x56 <=1 
C521: x13+x59 <=1 
C522: x13+x62 <=1 
C523: x13+x66 <=1 
C524: x13+x67 <=1 
C525: x14+x15 <=1 
C526: x14+x16-y14_16 <=1 
C527: x14+x17 <=1 
C528: x14+x18-y14_18 <=1 
C529: x14+x19-y14_19 <=1 
C530: x14+x20 <=1 
C531: x14+x21-y14_21 <=1 
C532: x14+x22-y14_22 <=1 
C533: x14+x23 <=1 
C534: x14+x24 <=1 
C535: x14+x25 <=1 
C536: x14+x26 <=1 
C537: x14+x27 <=1 
C538: x14+x28 <=1 
C539: x14+x29 <=1 
C540: x14+x30-y14_30 <=1 
C541: x14+x32 <=1 
C542: x14+x33-y14_33 <=1 
C543: x14+x34 <=1 
C544: x14+x35 <=1 
C545: x14+x36 <=1 
C546: x14+x37 <=1 
C547: x14+x40-y14_40 <=1 
C548: x14+x41-y14_41 <=1 
C549: x14+x42 <=1 
C550: x14+x43 <=1 
C551: x14+x44 <=1 
C552: x14+x46-y14_46 <=1 
C553: x14+x47-y14_47 <=1 
C554: x14+x48-y14_48 <=1 
C555: x14+x49-y14_49 <=1 
C556: x14+x50 <=1 
C557: x14+x52 <=1 
C558: x14+x58-y14_58 <=1 
C559: x14+x59-y14_59 <=1 
C560: x14+x60 <=1 
C561: x14+x64 <=1 
C562: x14+x65-y14_65 <=1 
C563: x14+x66-y14_66 <=1 
C564: x14+x67-y14_67 <=1 
C565: x15+x16 <=1 
C566: x15+x18-y15_18 <=1 
C567: x15+x19 <=1 
C568: x15+x20-y15_20 <=1 
C569: x15+x21-y15_21 <=1 
C570: x15+x24-y15_24 <=1 
C571: x15+x25-y15_25 <=1 
C572: x15+x27-y15_27 <=1 
C573: x15+x28-y15_28 <=1 
C574: x15+x30-y15_30 <=1 
C575: x15+x34 <=1 
C576: x15+x35 <=1 
C577: x15+x36-y15_36 <=1 
C578: x15+x39 <=1 
C579: x15+x40-y15_40 <=1 
C580: x15+x41 <=1 
C581: x15+x42-y15_42 <=1 
C582: x15+x43-y15_43 <=1 
C583: x15+x44 <=1 
C584: x15+x45 <=1 
C585: x15+x49 <=1 
C586: x15+x50 <=1 
C587: x15+x52 <=1 
C588: x15+x53 <=1 
C589: x15+x54-y15_54 <=1 
C590: x15+x56-y15_56 <=1 
C591: x15+x58 <=1 
C592: x15+x59 <=1 
C593: x15+x61-y15_61 <=1 
C594: x15+x63 <=1 
C595: x15+x65-y15_65 <=1 
C596: x15+x66-y15_66 <=1 
C597: x16+x17 <=1 
C598: x16+x19 <=1 
C599: x16+x21 <=1 
C600: x16+x24-y16_24 <=1 
C601: x16+x25-y16_25 <=1 
C602: x16+x26-y16_26 <=1 
C603: x16+x27-y16_27 <=1 
C604: x16+x29 <=1 
C605: x16+x32 <=1 
C606: x16+x33 <=1 
C607: x16+x35-y16_35 <=1 
C608: x16+x36-y16_36 <=1 
C609: x16+x38 <=1 
C610: x16+x40 <=1 
C611: x16+x42-y16_42 <=1 
C612: x16+x44-y16_44 <=1 
C613: x16+x46-y16_46 <=1 
C614: x16+x51-y16_51 <=1 
C615: x16+x52 <=1 
C616: x16+x53-y16_53 <=1 
C617: x16+x55-y16_55 <=1 
C618: x16+x57 <=1 
C619: x16+x58-y16_58 <=1 
C620: x16+x60-y16_60 <=1 
C621: x16+x63-y16_63 <=1 
C622: x16+x64-y16_64 <=1 
C623: x16+x66-y16_66 <=1 
C624: x16+x67 <=1 
C625: x17+x20-y17_20 <=1 
C626: x17+x21 <=1 
C627: x17+x24-y17_24 <=1 
C628: x17+x25 <=1 
C629: x17+x28-y17_28 <=1 
C630: x17+x29 <=1 
C631: x17+x30-y17_30 <=1 
C632: x17+x31-y17_31 <=1 
C633: x17+x32 <=1 
C634: x17+x33 <=1 
C635: x17+x34 <=1 
C636: x17+x36-y17_36 <=1 
C637: x17+x38 <=1 
C638: x17+x39-y17_39 <=1 
C639: x17+x44 <=1 
C640: x17+x45 <=1 
C641: x17+x46 <=1 
C642: x17+x47 <=1 
C643: x17+x48 <=1 
C644: x17+x49 <=1 
C645: x17+x50 <=1 
C646: x17+x51-y17_51 <=1 
C647: x17+x53 <=1 
C648: x17+x58 <=1 
C649: x17+x61 <=1 
C650: x17+x62 <=1 
C651: x17+x63-y17_63 <=1 
C652: x17+x64-y17_64 <=1 
C653: x17+x65 <=1 
C654: x17+x66-y17_66 <=1 
C655: x18+x20 <=1 
C656: x18+x23-y18_23 <=1 
C657: x18+x24-y18_24 <=1 
C658: x18+x27 <=1 
C659: x18+x28 <=1 
C660: x18+x29 <=1 
C661: x18+x30-y18_30 <=1 
C662: x18+x31-y18_31 <=1 
C663: x18+x32 <=1 
C664: x18+x33-y18_33 <=1 
C665: x18+x34 <=1 
C666: x18+x35 <=1 
C667: x18+x36 <=1 
C668: x18+x37 <=1 
C669: x18+x38 <=1 
C670: x18+x39-y18_39 <=1 
C671: x18+x40 <=1 
C672: x18+x41-y18_41 <=1 
C673: x18+x45-y18_45 <=1 
C674: x18+x46 <=1 
C675: x18+x50-y18_50 <=1 
C676: x18+x51-y18_51 <=1 
C677: x18+x52 <=1 
C678: x18+x53-y18_53 <=1 
C679: x18+x54 <=1 
C680: x18+x58-y18_58 <=1 
C681: x18+x61-y18_61 <=1 
C682: x18+x62-y18_62 <=1 
C683: x18+x63 <=1 
C684: x18+x64-y18_64 <=1 
C685: x18+x65 <=1 
C686: x18+x66 <=1 
C687: x18+x67-y18_67 <=1 
C688: x19+x20 <=1 
C689: x19+x22-y19_22 <=1 
C690: x19+x23-y19_23 <=1 
C691: x19+x24-y19_24 <=1 
C692: x19+x25 <=1 
C693: x19+x28 <=1 
C694: x19+x29-y19_29 <=1 
C695: x19+x30 <=1 
C696: x19+x31 <=1 
C697: x19+x32-y19_32 <=1 
C698: x19+x33 <=1 
C699: x19+x34 <=1 
C700: x19+x35 <=1 
C701: x19+x36 <=1 
C702: x19+x37 <=1 
C703: x19+x40-y19_40 <=1 
C704: x19+x41 <=1 
C705: x19+x42-y19_42 <=1 
C706: x19+x43-y19_43 <=1 
C707: x19+x44 <=1 
C708: x19+x46 <=1 
C709: x19+x48 <=1 
C710: x19+x50 <=1 
C711: x19+x52 <=1 
C712: x19+x54-y19_54 <=1 
C713: x19+x56-y19_56 <=1 
C714: x19+x58-y19_58 <=1 
C715: x19+x60-y19_60 <=1 
C716: x19+x61 <=1 
C717: x19+x62 <=1 
C718: x19+x63-y19_63 <=1 
C719: x19+x64 <=1 
C720: x19+x65-y19_65 <=1 
C721: x20+x22 <=1 
C722: x20+x23 <=1 
C723: x20+x26 <=1 
C724: x20+x30 <=1 
C725: x20+x31 <=1 
C726: x20+x32 <=1 
C727: x20+x35-y20_35 <=1 
C728: x20+x37-y20_37 <=1 
C729: x20+x38 <=1 
C730: x20+x39-y20_39 <=1 
C731: x20+x40 <=1 
C732: x20+x41 <=1 
C733: x20+x43-y20_43 <=1 
C734: x20+x46 <=1 
C735: x20+x48 <=1 
C736: x20+x49 <=1 
C737: x20+x53 <=1 
C738: x20+x54 <=1 
C739: x20+x55-y20_55 <=1 
C740: x20+x61-y20_61 <=1 
C741: x20+x64 <=1 
C742: x20+x65 <=1 
C743: x20+x67-y20_67 <=1 
C744: x21+x22-y21_22 <=1 
C745: x21+x23 <=1 
C746: x21+x25-y21_25 <=1 
C747: x21+x26-y21_26 <=1 
C748: x21+x27-y21_27 <=1 
C749: x21+x29 <=1 
C750: x21+x30-y21_30 <=1 
C751: x21+x31 <=1 
C752: x21+x32 <=1 
C753: x21+x37-y21_37 <=1 
C754: x21+x38 <=1 
C755: x21+x40-y21_40 <=1 
C756: x21+x41 <=1 
C757: x21+x42-y21_42 <=1 
C758: x21+x43 <=1 
C759: x21+x44 <=1 
C760: x21+x46 <=1 
C761: x21+x47-y21_47 <=1 
C762: x21+x48-y21_48 <=1 
C763: x21+x49 <=1 
C764: x21+x50 <=1 
C765: x21+x54 <=1 
C766: x21+x58 <=1 
C767: x21+x59-y21_59 <=1 
C768: x21+x60-y21_60 <=1 
C769: x21+x62-y21_62 <=1 
C770: x21+x63-y21_63 <=1 
C771: x21+x64-y21_64 <=1 
C772: x21+x65 <=1 
C773: x21+x66-y21_66 <=1 
C774: x22+x24-y22_24 <=1 
C775: x22+x25-y22_25 <=1 
C776: x22+x27 <=1 
C777: x22+x28 <=1 
C778: x22+x30 <=1 
C779: x22+x31-y22_31 <=1 
C780: x22+x32 <=1 
C781: x22+x37-y22_37 <=1 
C782: x22+x38 <=1 
C783: x22+x39 <=1 
C784: x22+x40-y22_40 <=1 
C785: x22+x41 <=1 
C786: x22+x42 <=1 
C787: x22+x45 <=1 
C788: x22+x46 <=1 
C789: x22+x47-y22_47 <=1 
C790: x22+x49 <=1 
C791: x22+x51-y22_51 <=1 
C792: x22+x52-y22_52 <=1 
C793: x22+x54 <=1 
C794: x22+x56 <=1 
C795: x22+x57 <=1 
C796: x22+x58-y22_58 <=1 
C797: x22+x59 <=1 
C798: x22+x61-y22_61 <=1 
C799: x22+x64 <=1 
C800: x22+x65-y22_65 <=1 
C801: x22+x67 <=1 
C802: x23+x27-y23_27 <=1 
C803: x23+x29-y23_29 <=1 
C804: x23+x32-y23_32 <=1 
C805: x23+x35-y23_35 <=1 
C806: x23+x36-y23_36 <=1 
C807: x23+x41 <=1 
C808: x23+x42-y23_42 <=1 
C809: x23+x43-y23_43 <=1 
C810: x23+x45 <=1 
C811: x23+x48 <=1 
C812: x23+x49-y23_49 <=1 
C813: x23+x50 <=1 
C814: x23+x51-y23_51 <=1 
C815: x23+x52 <=1 
C816: x23+x54-y23_54 <=1 
C817: x23+x55 <=1 
C818: x23+x56-y23_56 <=1 
C819: x23+x58-y23_58 <=1 
C820: x23+x59-y23_59 <=1 
C821: x23+x62-y23_62 <=1 
C822: x23+x64-y23_64 <=1 
C823: x23+x66-y23_66 <=1 
C824: x23+x67 <=1 
C825: x24+x25-y24_25 <=1 
C826: x24+x27-y24_27 <=1 
C827: x24+x28-y24_28 <=1 
C828: x24+x29-y24_29 <=1 
C829: x24+x30 <=1 
C830: x24+x32 <=1 
C831: x24+x35-y24_35 <=1 
C832: x24+x36-y24_36 <=1 
C833: x24+x37 <=1 
C834: x24+x38 <=1 
C835: x24+x41 <=1 
C836: x24+x42 <=1 
C837: x24+x43-y24_43 <=1 
C838: x24+x44 <=1 
C839: x24+x46-y24_46 <=1 
C840: x24+x47 <=1 
C841: x24+x48-y24_48 <=1 
C842: x24+x50-y24_50 <=1 
C843: x24+x51-y24_51 <=1 
C844: x24+x52 <=1 
C845: x24+x53-y24_53 <=1 
C846: x24+x54 <=1 
C847: x24+x55 <=1 
C848: x24+x56 <=1 
C849: x24+x57-y24_57 <=1 
C850: x24+x58 <=1 
C851: x24+x61 <=1 
C852: x24+x63-y24_63 <=1 
C853: x24+x65-y24_65 <=1 
C854: x24+x66-y24_66 <=1 
C855: x24+x67-y24_67 <=1 
C856: x25+x26 <=1 
C857: x25+x27-y25_27 <=1 
C858: x25+x31 <=1 
C859: x25+x32-y25_32 <=1 
C860: x25+x33 <=1 
C861: x25+x36 <=1 
C862: x25+x37-y25_37 <=1 
C863: x25+x38-y25_38 <=1 
C864: x25+x41-y25_41 <=1 
C865: x25+x42 <=1 
C866: x25+x44 <=1 
C867: x25+x46-y25_46 <=1 
C868: x25+x47 <=1 
C869: x25+x48 <=1 
C870: x25+x49 <=1 
C871: x25+x50-y25_50 <=1 
C872: x25+x54-y25_54 <=1 
C873: x25+x55 <=1 
C874: x25+x56 <=1 
C875: x25+x58 <=1 
C876: x25+x59-y25_59 <=1 
C877: x25+x60-y25_60 <=1 
C878: x25+x62-y25_62 <=1 
C879: x25+x63 <=1 
C880: x25+x64-y25_64 <=1 
C881: x25+x65-y25_65 <=1 
C882: x25+x66 <=1 
C883: x25+x67-y25_67 <=1 
C884: x26+x27 <=1 
C885: x26+x28 <=1 
C886: x26+x29 <=1 
C887: x26+x30-y26_30 <=1 
C888: x26+x31 <=1 
C889: x26+x32 <=1 
C890: x26+x34-y26_34 <=1 
C891: x26+x35-y26_35 <=1 
C892: x26+x36 <=1 
C893: x26+x38-y26_38 <=1 
C894: x26+x40-y26_40 <=1 
C895: x26+x43 <=1 
C896: x26+x44 <=1 
C897: x26+x45 <=1 
C898: x26+x47 <=1 
C899: x26+x48 <=1 
C900: x26+x50-y26_50 <=1 
C901: x26+x51 <=1 
C902: x26+x52-y26_52 <=1 
C903: x26+x53 <=1 
C904: x26+x54-y26_54 <=1 
C905: x26+x55-y26_55 <=1 
C906: x26+x56-y26_56 <=1 
C907: x26+x57-y26_57 <=1 
C908: x26+x58 <=1 
C909: x26+x61 <=1 
C910: x26+x62 <=1 
C911: x26+x63 <=1 
C912: x26+x67-y26_67 <=1 
C913: x27+x29-y27_29 <=1 
C914: x27+x30 <=1 
C915: x27+x31 <=1 
C916: x27+x32-y27_32 <=1 
C917: x27+x34-y27_34 <=1 
C918: x27+x35 <=1 
C919: x27+x36 <=1 
C920: x27+x37-y27_37 <=1 
C921: x27+x39 <=1 
C922: x27+x40-y27_40 <=1 
C923: x27+x42-y27_42 <=1 
C924: x27+x43-y27_43 <=1 
C925: x27+x45 <=1 
C926: x27+x46-y27_46 <=1 
C927: x27+x51 <=1 
C928: x27+x53-y27_53 <=1 
C929: x27+x54-y27_54 <=1 
C930: x27+x55 <=1 
C931: x27+x57-y27_57 <=1 
C932: x27+x58 <=1 
C933: x27+x59 <=1 
C934: x27+x60-y27_60 <=1 
C935: x27+x61-y27_61 <=1 
C936: x27+x62 <=1 
C937: x27+x63-y27_63 <=1 
C938: x27+x65 <=1 
C939: x27+x66-y27_66 <=1 
C940: x27+x67-y27_67 <=1 
C941: x28+x29-y28_29 <=1 
C942: x28+x33 <=1 
C943: x28+x35-y28_35 <=1 
C944: x28+x36-y28_36 <=1 
C945: x28+x38-y28_38 <=1 
C946: x28+x41-y28_41 <=1 
C947: x28+x42-y28_42 <=1 
C948: x28+x43-y28_43 <=1 
C949: x28+x44 <=1 
C950: x28+x46 <=1 
C951: x28+x47 <=1 
C952: x28+x48-y28_48 <=1 
C953: x28+x49 <=1 
C954: x28+x50-y28_50 <=1 
C955: x28+x52-y28_52 <=1 
C956: x28+x53 <=1 
C957: x28+x54 <=1 
C958: x28+x59-y28_59 <=1 
C959: x28+x61-y28_61 <=1 
C960: x28+x63-y28_63 <=1 
C961: x28+x64-y28_64 <=1 
C962: x28+x65-y28_65 <=1 
C963: x28+x66-y28_66 <=1 
C964: x28+x67 <=1 
C965: x29+x31 <=1 
C966: x29+x32 <=1 
C967: x29+x33 <=1 
C968: x29+x34-y29_34 <=1 
C969: x29+x36-y29_36 <=1 
C970: x29+x38-y29_38 <=1 
C971: x29+x40 <=1 
C972: x29+x41-y29_41 <=1 
C973: x29+x42 <=1 
C974: x29+x44-y29_44 <=1 
C975: x29+x46 <=1 
C976: x29+x48 <=1 
C977: x29+x49-y29_49 <=1 
C978: x29+x50 <=1 
C979: x29+x51 <=1 
C980: x29+x52-y29_52 <=1 
C981: x29+x53 <=1 
C982: x29+x54-y29_54 <=1 
C983: x29+x57-y29_57 <=1 
C984: x29+x58 <=1 
C985: x29+x59-y29_59 <=1 
C986: x29+x61-y29_61 <=1 
C987: x29+x62 <=1 
C988: x29+x63 <=1 
C989: x29+x64-y29_64 <=1 
C990: x29+x65-y29_65 <=1 
C991: x29+x66 <=1 
C992: x29+x67-y29_67 <=1 
C993: x30+x31 <=1 
C994: x30+x32-y30_32 <=1 
C995: x30+x33-y30_33 <=1 
C996: x30+x34 <=1 
C997: x30+x35-y30_35 <=1 
C998: x30+x36 <=1 
C999: x30+x38 <=1 
C1000: x30+x41-y30_41 <=1 
C1001: x30+x42-y30_42 <=1 
C1002: x30+x43 <=1 
C1003: x30+x44-y30_44 <=1 
C1004: x30+x45 <=1 
C1005: x30+x47-y30_47 <=1 
C1006: x30+x51 <=1 
C1007: x30+x53-y30_53 <=1 
C1008: x30+x59 <=1 
C1009: x30+x60 <=1 
C1010: x30+x62 <=1 
C1011: x30+x64-y30_64 <=1 
C1012: x30+x65 <=1 
C1013: x30+x67 <=1 
C1014: x31+x32 <=1 
C1015: x31+x35 <=1 
C1016: x31+x38 <=1 
C1017: x31+x42 <=1 
C1018: x31+x45 <=1 
C1019: x31+x47-y31_47 <=1 
C1020: x31+x49-y31_49 <=1 
C1021: x31+x50-y31_50 <=1 
C1022: x31+x51-y31_51 <=1 
C1023: x31+x52-y31_52 <=1 
C1024: x31+x53 <=1 
C1025: x31+x54 <=1 
C1026: x31+x56 <=1 
C1027: x31+x60 <=1 
C1028: x31+x61-y31_61 <=1 
C1029: x31+x62 <=1 
C1030: x31+x63 <=1 
C1031: x31+x65-y31_65 <=1 
C1032: x31+x66-y31_66 <=1 
C1033: x31+x67-y31_67 <=1 
C1034: x32+x34 <=1 
C1035: x32+x35 <=1 
C1036: x32+x36-y32_36 <=1 
C1037: x32+x37 <=1 
C1038: x32+x38-y32_38 <=1 
C1039: x32+x39 <=1 
C1040: x32+x40 <=1 
C1041: x32+x41-y32_41 <=1 
C1042: x32+x43-y32_43 <=1 
C1043: x32+x44-y32_44 <=1 
C1044: x32+x45 <=1 
C1045: x32+x46 <=1 
C1046: x32+x47 <=1 
C1047: x32+x48-y32_48 <=1 
C1048: x32+x50-y32_50 <=1 
C1049: x32+x51-y32_51 <=1 
C1050: x32+x53 <=1 
C1051: x32+x55-y32_55 <=1 
C1052: x32+x57 <=1 
C1053: x32+x59 <=1 
C1054: x32+x60 <=1 
C1055: x32+x61 <=1 
C1056: x32+x63-y32_63 <=1 
C1057: x32+x65-y32_65 <=1 
C1058: x32+x66 <=1 
C1059: x32+x67 <=1 
C1060: x33+x34-y33_34 <=1 
C1061: x33+x35-y33_35 <=1 
C1062: x33+x38 <=1 
C1063: x33+x40 <=1 
C1064: x33+x43 <=1 
C1065: x33+x45-y33_45 <=1 
C1066: x33+x46 <=1 
C1067: x33+x47-y33_47 <=1 
C1068: x33+x49 <=1 
C1069: x33+x52 <=1 
C1070: x33+x54-y33_54 <=1 
C1071: x33+x55-y33_55 <=1 
C1072: x33+x56-y33_56 <=1 
C1073: x33+x58 <=1 
C1074: x33+x61-y33_61 <=1 
C1075: x33+x63 <=1 
C1076: x33+x64-y33_64 <=1 
C1077: x33+x66 <=1 
C1078: x34+x35 <=1 
C1079: x34+x37 <=1 
C1080: x34+x38 <=1 
C1081: x34+x39-y34_39 <=1 
C1082: x34+x40 <=1 
C1083: x34+x41-y34_41 <=1 
C1084: x34+x43-y34_43 <=1 
C1085: x34+x44 <=1 
C1086: x34+x47 <=1 
C1087: x34+x48-y34_48 <=1 
C1088: x34+x49-y34_49 <=1 
C1089: x34+x50 <=1 
C1090: x34+x52 <=1 
C1091: x34+x53 <=1 
C1092: x34+x56 <=1 
C1093: x34+x59-y34_59 <=1 
C1094: x34+x61-y34_61 <=1 
C1095: x34+x62 <=1 
C1096: x34+x63 <=1 
C1097: x34+x65-y34_65 <=1 
C1098: x34+x66-y34_66 <=1 
C1099: x34+x67 <=1 
C1100: x35+x39 <=1 
C1101: x35+x41 <=1 
C1102: x35+x43 <=1 
C1103: x35+x44-y35_44 <=1 
C1104: x35+x45 <=1 
C1105: x35+x46-y35_46 <=1 
C1106: x35+x47-y35_47 <=1 
C1107: x35+x51-y35_51 <=1 
C1108: x35+x52 <=1 
C1109: x35+x56 <=1 
C1110: x35+x58-y35_58 <=1 
C1111: x35+x60-y35_60 <=1 
C1112: x35+x61-y35_61 <=1 
C1113: x35+x63 <=1 
C1114: x35+x67-y35_67 <=1 
C1115: x36+x38 <=1 
C1116: x36+x40 <=1 
C1117: x36+x42-y36_42 <=1 
C1118: x36+x43 <=1 
C1119: x36+x46-y36_46 <=1 
C1120: x36+x47 <=1 
C1121: x36+x51-y36_51 <=1 
C1122: x36+x52-y36_52 <=1 
C1123: x36+x53 <=1 
C1124: x36+x56 <=1 
C1125: x36+x57 <=1 
C1126: x36+x59 <=1 
C1127: x36+x60-y36_60 <=1 
C1128: x36+x61 <=1 
C1129: x36+x62 <=1 
C1130: x36+x63 <=1 
C1131: x36+x65-y36_65 <=1 
C1132: x36+x66-y36_66 <=1 
C1133: x37+x39-y37_39 <=1 
C1134: x37+x40-y37_40 <=1 
C1135: x37+x41 <=1 
C1136: x37+x42 <=1 
C1137: x37+x43-y37_43 <=1 
C1138: x37+x44-y37_44 <=1 
C1139: x37+x45-y37_45 <=1 
C1140: x37+x50 <=1 
C1141: x37+x51-y37_51 <=1 
C1142: x37+x53 <=1 
C1143: x37+x54-y37_54 <=1 
C1144: x37+x55-y37_55 <=1 
C1145: x37+x56-y37_56 <=1 
C1146: x37+x57-y37_57 <=1 
C1147: x37+x58 <=1 
C1148: x37+x61 <=1 
C1149: x37+x62 <=1 
C1150: x37+x67-y37_67 <=1 
C1151: x38+x39-y38_39 <=1 
C1152: x38+x45 <=1 
C1153: x38+x47-y38_47 <=1 
C1154: x38+x48 <=1 
C1155: x38+x49-y38_49 <=1 
C1156: x38+x50 <=1 
C1157: x38+x53 <=1 
C1158: x38+x54 <=1 
C1159: x38+x55 <=1 
C1160: x38+x56 <=1 
C1161: x38+x60-y38_60 <=1 
C1162: x38+x62-y38_62 <=1 
C1163: x38+x63 <=1 
C1164: x38+x65-y38_65 <=1 
C1165: x38+x67 <=1 
C1166: x39+x43-y39_43 <=1 
C1167: x39+x44-y39_44 <=1 
C1168: x39+x45-y39_45 <=1 
C1169: x39+x47-y39_47 <=1 
C1170: x39+x48-y39_48 <=1 
C1171: x39+x49 <=1 
C1172: x39+x51 <=1 
C1173: x39+x55-y39_55 <=1 
C1174: x39+x56 <=1 
C1175: x39+x59 <=1 
C1176: x39+x60 <=1 
C1177: x39+x61-y39_61 <=1 
C1178: x39+x62 <=1 
C1179: x39+x63-y39_63 <=1 
C1180: x39+x65 <=1 
C1181: x39+x66-y39_66 <=1 
C1182: x39+x67-y39_67 <=1 
C1183: x40+x42 <=1 
C1184: x40+x44 <=1 
C1185: x40+x45 <=1 
C1186: x40+x48 <=1 
C1187: x40+x49-y40_49 <=1 
C1188: x40+x51-y40_51 <=1 
C1189: x40+x52 <=1 
C1190: x40+x54 <=1 
C1191: x40+x55 <=1 
C1192: x40+x58-y40_58 <=1 
C1193: x40+x61-y40_61 <=1 
C1194: x40+x63 <=1 
C1195: x40+x64 <=1 
C1196: x40+x65-y40_65 <=1 
C1197: x40+x67-y40_67 <=1 
C1198: x41+x43-y41_43 <=1 
C1199: x41+x44-y41_44 <=1 
C1200: x41+x48-y41_48 <=1 
C1201: x41+x49 <=1 
C1202: x41+x52-y41_52 <=1 
C1203: x41+x55-y41_55 <=1 
C1204: x41+x59 <=1 
C1205: x41+x61 <=1 
C1206: x41+x63-y41_63 <=1 
C1207: x41+x64-y41_64 <=1 
C1208: x41+x65-y41_65 <=1 
C1209: x41+x66 <=1 
C1210: x42+x45 <=1 
C1211: x42+x47 <=1 
C1212: x42+x49-y42_49 <=1 
C1213: x42+x50-y42_50 <=1 
C1214: x42+x52-y42_52 <=1 
C1215: x42+x55-y42_55 <=1 
C1216: x42+x56-y42_56 <=1 
C1217: x42+x57 <=1 
C1218: x42+x59-y42_59 <=1 
C1219: x42+x60-y42_60 <=1 
C1220: x42+x61-y42_61 <=1 
C1221: x42+x62-y42_62 <=1 
C1222: x42+x64-y42_64 <=1 
C1223: x42+x65-y42_65 <=1 
C1224: x42+x66 <=1 
C1225: x43+x45-y43_45 <=1 
C1226: x43+x48-y43_48 <=1 
C1227: x43+x52-y43_52 <=1 
C1228: x43+x53-y43_53 <=1 
C1229: x43+x54-y43_54 <=1 
C1230: x43+x55-y43_55 <=1 
C1231: x43+x57 <=1 
C1232: x43+x60 <=1 
C1233: x43+x61 <=1 
C1234: x43+x62 <=1 
C1235: x43+x63-y43_63 <=1 
C1236: x43+x64-y43_64 <=1 
C1237: x43+x66-y43_66 <=1 
C1238: x44+x45 <=1 
C1239: x44+x50-y44_50 <=1 
C1240: x44+x51-y44_51 <=1 
C1241: x44+x52 <=1 
C1242: x44+x53-y44_53 <=1 
C1243: x44+x54-y44_54 <=1 
C1244: x44+x55-y44_55 <=1 
C1245: x44+x56 <=1 
C1246: x44+x57 <=1 
C1247: x44+x62-y44_62 <=1 
C1248: x44+x64-y44_64 <=1 
C1249: x44+x65 <=1 
C1250: x44+x66-y44_66 <=1 
C1251: x44+x67-y44_67 <=1 
C1252: x45+x48-y45_48 <=1 
C1253: x45+x49 <=1 
C1254: x45+x52-y45_52 <=1 
C1255: x45+x54 <=1 
C1256: x45+x55 <=1 
C1257: x45+x56 <=1 
C1258: x45+x61-y45_61 <=1 
C1259: x45+x62 <=1 
C1260: x45+x66 <=1 
C1261: x45+x67 <=1 
C1262: x46+x50 <=1 
C1263: x46+x51 <=1 
C1264: x46+x52 <=1 
C1265: x46+x53 <=1 
C1266: x46+x54 <=1 
C1267: x46+x62 <=1 
C1268: x46+x63-y46_63 <=1 
C1269: x46+x64-y46_64 <=1 
C1270: x46+x67 <=1 
C1271: x47+x49-y47_49 <=1 
C1272: x47+x51 <=1 
C1273: x47+x52 <=1 
C1274: x47+x53 <=1 
C1275: x47+x54-y47_54 <=1 
C1276: x47+x55-y47_55 <=1 
C1277: x47+x56-y47_56 <=1 
C1278: x47+x58-y47_58 <=1 
C1279: x47+x64 <=1 
C1280: x47+x65-y47_65 <=1 
C1281: x47+x66-y47_66 <=1 
C1282: x48+x49-y48_49 <=1 
C1283: x48+x51-y48_51 <=1 
C1284: x48+x52-y48_52 <=1 
C1285: x48+x53 <=1 
C1286: x48+x58 <=1 
C1287: x48+x59-y48_59 <=1 
C1288: x48+x60-y48_60 <=1 
C1289: x48+x61 <=1 
C1290: x48+x63-y48_63 <=1 
C1291: x48+x64 <=1 
C1292: x48+x65-y48_65 <=1 
C1293: x48+x66 <=1 
C1294: x49+x50 <=1 
C1295: x49+x54-y49_54 <=1 
C1296: x49+x55 <=1 
C1297: x49+x57-y49_57 <=1 
C1298: x49+x58-y49_58 <=1 
C1299: x49+x59-y49_59 <=1 
C1300: x49+x60-y49_60 <=1 
C1301: x49+x62 <=1 
C1302: x49+x64 <=1 
C1303: x49+x65 <=1 
C1304: x50+x51-y50_51 <=1 
C1305: x50+x53-y50_53 <=1 
C1306: x50+x54 <=1 
C1307: x50+x55 <=1 
C1308: x50+x56-y50_56 <=1 
C1309: x50+x57-y50_57 <=1 
C1310: x50+x58 <=1 
C1311: x50+x59 <=1 
C1312: x50+x61 <=1 
C1313: x50+x63 <=1 
C1314: x50+x64-y50_64 <=1 
C1315: x50+x65 <=1 
C1316: x51+x52-y51_52 <=1 
C1317: x51+x55-y51_55 <=1 
C1318: x51+x57-y51_57 <=1 
C1319: x51+x58-y51_58 <=1 
C1320: x51+x60-y51_60 <=1 
C1321: x51+x63-y51_63 <=1 
C1322: x51+x64-y51_64 <=1 
C1323: x51+x66 <=1 
C1324: x52+x53 <=1 
C1325: x52+x54 <=1 
C1326: x52+x59-y52_59 <=1 
C1327: x52+x61 <=1 
C1328: x52+x64-y52_64 <=1 
C1329: x52+x65 <=1 
C1330: x52+x66 <=1 
C1331: x53+x54 <=1 
C1332: x53+x56 <=1 
C1333: x53+x57 <=1 
C1334: x53+x58-y53_58 <=1 
C1335: x53+x60 <=1 
C1336: x53+x61 <=1 
C1337: x53+x65 <=1 
C1338: x54+x56 <=1 
C1339: x54+x57 <=1 
C1340: x54+x58 <=1 
C1341: x54+x62-y54_62 <=1 
C1342: x54+x63 <=1 
C1343: x54+x64-y54_64 <=1 
C1344: x54+x65-y54_65 <=1 
C1345: x55+x56-y55_56 <=1 
C1346: x55+x57-y55_57 <=1 
C1347: x55+x59-y55_59 <=1 
C1348: x55+x60 <=1 
C1349: x55+x62-y55_62 <=1 
C1350: x55+x63 <=1 
C1351: x55+x64-y55_64 <=1 
C1352: x55+x65 <=1 
C1353: x55+x67 <=1 
C1354: x56+x57-y56_57 <=1 
C1355: x56+x59 <=1 
C1356: x56+x60 <=1 
C1357: x56+x64 <=1 
C1358: x57+x59 <=1 
C1359: x57+x61 <=1 
C1360: x57+x62 <=1 
C1361: x57+x63 <=1 
C1362: x57+x64 <=1 
C1363: x57+x65-y57_65 <=1 
C1364: x57+x66 <=1 
C1365: x58+x61-y58_61 <=1 
C1366: x58+x62-y58_62 <=1 
C1367: x58+x63 <=1 
C1368: x58+x64 <=1 
C1369: x58+x65 <=1 
C1370: x58+x66 <=1 
C1371: x59+x60-y59_60 <=1 
C1372: x59+x61-y59_61 <=1 
C1373: x59+x63 <=1 
C1374: x59+x64 <=1 
C1375: x59+x65 <=1 
C1376: x60+x65 <=1 
C1377: x60+x66 <=1 
C1378: x61+x63 <=1 
C1379: x61+x65 <=1 
C1380: x61+x67-y61_67 <=1 
C1381: x62+x63 <=1 
C1382: x62+x65 <=1 
C1383: x62+x66-y62_66 <=1 
C1384: x62+x67 <=1 
C1385: x63+x64 <=1 
C1386: x63+x65 <=1 
C1387: x63+x66-y63_66 <=1 
C1388: x64+x65-y64_65 <=1 
C1389: x64+x66-y64_66 <=1 
C1390: x65+x67-y65_67 <=1 

binary
x0
x1
x2
x3
x4
x5
x6
x7
x8
x9
x10
x11
x12
x13
x14
x15
x16
x17
x18
x19
x20
x21
x22
x23
x24
x25
x26
x27
x28
x29
x30
x31
x32
x33
x34
x35
x36
x37
x38
x39
x40
x41
x42
x43
x44
x45
x46
x47
x48
x49
x50
x51
x52
x53
x54
x55
x56
x57
x58
x59
x60
x61
x62
x63
x64
x65
x66
x67
